# Objective value = 4.3470599999999995e+03
I_0_0 1301
I_0_1 1.6989999999999998e+03
I_0_2 1451
I_0_3 1.9989999999999998e+03
I_1_0 91
I_1_1 0
I_1_2 91
I_1_3 0
I_2_0 44
I_2_1 0
I_2_2 44
I_2_3 6.1062266354383610e-15
I_3_0 43
I_3_1 1.7902346272080649e-15
I_3_2 43
I_3_3 1.7902346272080649e-15
I_4_0 110
I_4_1 5.5000000000000014e+01
I_4_2 110
I_4_3 5.4999999999999993e+01
I_5_0 26
I_5_1 0
I_5_2 26
I_5_3 0
I_6_0 51
I_6_1 0
I_6_2 51
I_6_3 -2.2648549702352474e-14
I_7_0 102
I_7_1 102
I_7_2 51
I_7_3 0
I_8_0 198
I_8_1 198
I_8_2 9.8999999999999929e+01
I_8_3 -7.1054273576010019e-14
I_9_0 69
I_9_1 0
I_9_2 69
I_9_3 0
I_10_0 19
I_10_1 1.0547118733938987e-14
I_10_2 1.8999999999999996e+01
I_10_3 1.0547118733938987e-14
q_1_0 0
q_1_1 182
q_1_2 0
q_2_0 0
q_2_1 88
q_2_2 6.1062266354383610e-15
q_3_0 1.7902346272080649e-15
q_3_1 86
q_3_2 1.7902346272080649e-15
q_4_0 1.2212453270876722e-14
q_4_1 1.0999999999999999e+02
q_4_2 0
q_5_0 0
q_5_1 52
q_5_2 0
q_6_0 0
q_6_1 102
q_6_2 -2.2648549702352474e-14
q_7_0 51
q_7_1 0
q_7_2 0
q_8_0 99
q_8_1 -9.9475983006414026e-14
q_8_2 0
q_9_0 0
q_9_1 138
q_9_2 0
q_10_0 1.0547118733938987e-14
q_10_1 3.7999999999999986e+01
q_10_2 1.4099832412739488e-14
y_0_0 1
y_0_1 1
y_0_2 -7.1123662515049091e-17
y_1_0 0
y_1_1 1
y_1_2 0
y_2_0 0
y_2_1 1
y_2_2 1.3877787807814457e-16
y_3_0 4.1633363423443370e-17
y_3_1 1
y_3_2 4.1633363423443370e-17
y_4_0 2.2204460492503131e-16
y_4_1 9.9999999999999978e-01
y_4_2 0
y_5_0 0
y_5_1 1
y_5_2 0
y_6_0 0
y_6_1 1
y_6_2 -4.4408920985004852e-16
y_7_0 1
y_7_1 0
y_7_2 0
y_8_0 1
y_8_1 -8.3266726846886741e-16
y_8_2 0
y_9_0 0
y_9_1 1
y_9_2 0
y_10_0 5.5511151231257827e-16
y_10_1 9.9999999999999989e-01
y_10_2 5.5511151231257827e-16
x_0_1_0 0
x_0_1_1 0
x_0_1_2 0
x_0_2_0 0
x_0_2_1 0
x_0_2_2 0
x_0_3_0 0
x_0_3_1 0
x_0_3_2 0
x_0_4_0 0
x_0_4_1 0
x_0_4_2 0
x_0_5_0 0
x_0_5_1 0
x_0_5_2 0
x_0_6_0 0
x_0_6_1 0
x_0_6_2 0
x_0_7_0 9.9999999999999745e-01
x_0_7_1 0
x_0_7_2 0
x_0_8_0 1.0000000000000027e+00
x_0_8_1 -4.4408920985006262e-16
x_0_8_2 -1.4224732503009818e-16
x_0_9_0 0
x_0_9_1 1
x_0_9_2 0
x_0_10_0 0
x_0_10_1 1
x_0_10_2 0
x_1_2_0 0
x_1_2_1 0
x_1_2_2 0
x_1_3_0 0
x_1_3_1 8.8817841970012523e-16
x_1_3_2 4.1633363423443370e-17
x_1_4_0 0
x_1_4_1 0
x_1_4_2 9.8532293435482643e-16
x_1_5_0 0
x_1_5_1 1
x_1_5_2 0
x_1_6_0 0
x_1_6_1 0
x_1_6_2 0
x_1_7_0 0
x_1_7_1 0
x_1_7_2 0
x_1_8_0 0
x_1_8_1 0
x_1_8_2 0
x_1_9_0 0
x_1_9_1 1
x_1_9_2 -1.0321604682062002e-15
x_1_10_0 0
x_1_10_1 0
x_1_10_2 0
x_2_3_0 0
x_2_3_1 -1.4432899320127035e-15
x_2_3_2 0
x_2_4_0 0
x_2_4_1 9.9999999999999978e-01
x_2_4_2 -8.1878948066105295e-16
x_2_5_0 0
x_2_5_1 0
x_2_5_2 0
x_2_6_0 0
x_2_6_1 9.9999999999999956e-01
x_2_6_2 2.1395242489218423e-29
x_2_7_0 0
x_2_7_1 0
x_2_7_2 0
x_2_8_0 0
x_2_8_1 0
x_2_8_2 0
x_2_9_0 0
x_2_9_1 0
x_2_9_2 0
x_2_10_0 0
x_2_10_1 0
x_2_10_2 0
x_3_4_0 9.71445146547012e-17
x_3_4_1 9.9999999999999867e-01
x_3_4_2 4.1633363423443370e-17
x_3_5_0 0
x_3_5_1 1
x_3_5_2 0
x_3_6_0 0
x_3_6_1 0
x_3_6_2 0
x_3_7_0 9.71445146547012e-17
x_3_7_1 0
x_3_7_2 0
x_3_8_0 0
x_3_8_1 0
x_3_8_2 0
x_3_9_0 0
x_3_9_1 0
x_3_9_2 0
x_3_10_0 0
x_3_10_1 0
x_3_10_2 0
x_4_5_0 0
x_4_5_1 0
x_4_5_2 0
x_4_6_0 0
x_4_6_1 8.8817841970012523e-16
x_4_6_2 -1.1483869410966463e-15
x_4_7_0 3.7470027081099033e-16
x_4_7_1 0
x_4_7_2 0
x_4_8_0 0
x_4_8_1 0
x_4_8_2 0
x_4_9_0 0
x_4_9_1 0
x_4_9_2 1.0321604682062002e-15
x_4_10_0 0
x_4_10_1 0
x_4_10_2 0
x_5_6_0 0
x_5_6_1 0
x_5_6_2 0
x_5_7_0 0
x_5_7_1 0
x_5_7_2 0
x_5_8_0 0
x_5_8_1 0
x_5_8_2 0
x_5_9_0 0
x_5_9_1 0
x_5_9_2 0
x_5_10_0 0
x_5_10_1 0
x_5_10_2 0
x_6_7_0 0
x_6_7_1 0
x_6_7_2 -6.2450045135165055e-16
x_6_8_0 0
x_6_8_1 0
x_6_8_2 0
x_6_9_0 0
x_6_9_1 0
x_6_9_2 0
x_6_10_0 0
x_6_10_1 1
x_6_10_2 3.7470027081099033e-16
x_7_8_0 1.0000000000000018e+00
x_7_8_1 0
x_7_8_2 0
x_7_9_0 0
x_7_9_1 0
x_7_9_2 0
x_7_10_0 5.4123372450476381e-16
x_7_10_1 0
x_7_10_2 5.5511151231257827e-16
x_8_9_0 0
x_8_9_1 0
x_8_9_2 0
x_8_10_0 3.3306690738754696e-16
x_8_10_1 -1.5543122344752192e-15
x_8_10_2 1.4224732503009818e-16
x_9_10_0 0
x_9_10_1 0
x_9_10_2 0
